c *********************************
c * Circuit generated by BenCGen
c *
c * Parity_34
c *
c * Ports with 1 gate(s): 1
c * Ports with 2 gate(s): 34
c * Total gates: 35
c *********************************
p cnf 69 137
1 37 0
-1 -37 0
1 -36 0
37 -36 0
-1 -37 36 0
1 2 -38 0
-1 2 38 0
1 -2 38 0
-1 -2 -38 0
3 4 -39 0
-3 4 39 0
3 -4 39 0
-3 -4 -39 0
5 6 -40 0
-5 6 40 0
5 -6 40 0
-5 -6 -40 0
7 8 -41 0
-7 8 41 0
7 -8 41 0
-7 -8 -41 0
9 10 -42 0
-9 10 42 0
9 -10 42 0
-9 -10 -42 0
11 12 -43 0
-11 12 43 0
11 -12 43 0
-11 -12 -43 0
13 14 -44 0
-13 14 44 0
13 -14 44 0
-13 -14 -44 0
15 16 -45 0
-15 16 45 0
15 -16 45 0
-15 -16 -45 0
17 18 -46 0
-17 18 46 0
17 -18 46 0
-17 -18 -46 0
19 20 -47 0
-19 20 47 0
19 -20 47 0
-19 -20 -47 0
21 22 -48 0
-21 22 48 0
21 -22 48 0
-21 -22 -48 0
23 24 -49 0
-23 24 49 0
23 -24 49 0
-23 -24 -49 0
25 26 -50 0
-25 26 50 0
25 -26 50 0
-25 -26 -50 0
27 28 -51 0
-27 28 51 0
27 -28 51 0
-27 -28 -51 0
29 30 -52 0
-29 30 52 0
29 -30 52 0
-29 -30 -52 0
31 32 -53 0
-31 32 53 0
31 -32 53 0
-31 -32 -53 0
33 34 -54 0
-33 34 54 0
33 -34 54 0
-33 -34 -54 0
38 39 -55 0
-38 39 55 0
38 -39 55 0
-38 -39 -55 0
40 41 -56 0
-40 41 56 0
40 -41 56 0
-40 -41 -56 0
42 43 -57 0
-42 43 57 0
42 -43 57 0
-42 -43 -57 0
44 45 -58 0
-44 45 58 0
44 -45 58 0
-44 -45 -58 0
46 47 -59 0
-46 47 59 0
46 -47 59 0
-46 -47 -59 0
48 49 -60 0
-48 49 60 0
48 -49 60 0
-48 -49 -60 0
50 51 -61 0
-50 51 61 0
50 -51 61 0
-50 -51 -61 0
52 53 -62 0
-52 53 62 0
52 -53 62 0
-52 -53 -62 0
55 56 -63 0
-55 56 63 0
55 -56 63 0
-55 -56 -63 0
57 58 -64 0
-57 58 64 0
57 -58 64 0
-57 -58 -64 0
59 60 -65 0
-59 60 65 0
59 -60 65 0
-59 -60 -65 0
61 62 -66 0
-61 62 66 0
61 -62 66 0
-61 -62 -66 0
63 64 -67 0
-63 64 67 0
63 -64 67 0
-63 -64 -67 0
65 66 -68 0
-65 66 68 0
65 -66 68 0
-65 -66 -68 0
67 68 -69 0
-67 68 69 0
67 -68 69 0
-67 -68 -69 0
69 54 -35 0
-69 54 35 0
69 -54 35 0
-69 -54 -35 0
